c NeuroCodeBench 2.0 CNF formula with verdict Unsat
p cnf 10 45
1 10 5 6 3 4 0
-1 -10 -6 -3 8 -9 0
1 10 -5 -2 9 4 0
-1 10 8 7 -9 -3 0
1 10 -5 -2 -9 -3 4 0
1 -10 -7 9 -4 2 0
1 10 -5 -2 -9 3 -4 0
-1 10 8 -7 -6 -2 -3 5 0
-1 10 8 7 -9 3 0
-1 10 -8 7 0
-1 10 8 -7 6 -9 -5 -3 0
-1 -10 -6 3 0
1 -10 -7 9 4 0
-1 10 8 -7 6 -9 -5 3 0
-1 -10 6 4 9 -3 0
-1 10 8 -7 6 -9 5 0
1 10 5 -6 -2 -4 0
-1 -10 -6 -3 -8 0
1 10 5 6 -3 0
-1 -10 6 4 9 3 0
1 10 5 -6 2 -3 0
-1 -10 -6 -3 8 9 2 0
1 -10 -7 9 -4 -2 0
1 10 5 -6 2 3 0
-1 10 8 -7 -6 -2 -3 -5 0
1 10 -5 -2 -9 3 4 0
1 -10 -7 -9 6 -4 0
1 10 -5 2 -3 0
-1 -10 -6 -3 8 9 -2 0
-1 10 8 -7 -6 2 0
1 10 -5 2 3 0
-1 -10 6 4 -9 0
-1 10 8 -7 -6 -2 3 0
1 10 -5 -2 9 -4 0
1 -10 -7 -9 -6 0
1 10 -5 -2 -9 -3 -4 0
1 10 5 6 3 -4 0
-1 10 -8 -7 0
-1 10 8 -7 6 9 0
1 -10 7 0
1 10 5 -6 -2 4 -3 0
1 10 5 -6 -2 4 3 0
-1 10 8 7 9 0
1 -10 -7 -9 6 4 0
-1 -10 6 -4 0
